************************************************************************
file with basedata            : mm28_.bas
initial value random generator: 109399053
************************************************************************
projects                      :  1
jobs (incl. supersource/sink ):  12
horizon                       :  79
RESOURCES
  - renewable                 :  2   R
  - nonrenewable              :  2   N
  - doubly constrained        :  0   D
************************************************************************
PROJECT INFORMATION:
pronr.  #jobs rel.date duedate tardcost  MPM-Time
    1     10      0       16        6       16
************************************************************************
PRECEDENCE RELATIONS:
jobnr.    #modes  #successors   successors
   1        1          3           2   3   4
   2        3          1           5
   3        3          1           6
   4        3          2           5   6
   5        3          2           9  11
   6        3          2           7   8
   7        3          1          11
   8        3          3           9  10  11
   9        3          1          12
  10        3          1          12
  11        3          1          12
  12        1          0        
************************************************************************
REQUESTS/DURATIONS:
jobnr. mode duration  R 1  R 2  N 1  N 2
------------------------------------------------------------------------
  1      1     0       0    0    0    0
  2      1     2       0   10    7    0
         2     6       6    0    0    7
         3     7       3    0    0    6
  3      1     2       0    9    0    6
         2     3       0    8    0    4
         3    10       6    0    0    4
  4      1     1       6    0    5    0
         2     3       5    0    5    0
         3     6       0   10    4    0
  5      1     3       7    0    8    0
         2     4       6    0    6    0
         3     5       0    5    0    6
  6      1     3       8    0    2    0
         2     4       4    0    2    0
         3     6       0    5    1    0
  7      1     1       0    9    8    0
         2     3       0    8    6    0
         3     7       0    7    6    0
  8      1     8       0    5    0    8
         2     9       9    0    7    0
         3    10       0    4    0    7
  9      1     3       0    7    5    0
         2     6       1    0    1    0
         3     9       0    6    0   10
 10      1     2       0    7    0    5
         2     7       6    0    6    0
         3     9       0    3    0    2
 11      1     1       5    0    7    0
         2     8       4    0    6    0
         3    10       0    3    5    0
 12      1     0       0    0    0    0
************************************************************************
RESOURCEAVAILABILITIES:
  R 1  R 2  N 1  N 2
   18   29   55   42
************************************************************************
MAXIMAL LAGS:
from  to  type  delay
    1   12   ES      0
    1    2   ES      0
    2   12   ES      0
    1    3   ES      0
    3   12   ES      0
    1    4   ES      0
    4   12   ES      0
    1    5   ES      0
    5   12   ES      0
    1    6   ES      0
    6   12   ES      0
    1    7   ES      0
    7   12   ES      0
    1    8   ES      0
    8   12   ES      0
    1    9   ES      0
    9   12   ES      0
    1   10   ES      0
   10   12   ES      0
    1   11   ES      0
   11   12   ES      0
    1   12   ES      0
    2    5   SS     -4
    2    5   SE    -12
    2    5   ES      2
    2    5   EE      3
    3    6   SS      3
    3    6   SE      5
    3    6   ES    -12
    3    6   EE      7
    4    5   SS      3
    4    5   SE     -5
    4    5   ES     -6
    4    5   EE      6
    4    6   SS      9
    4    6   SE      3
    4    6   ES      2
    4    6   EE      1
    5    9   SS      2
    5    9   SE    -10
    5    9   ES      7
    5    9   EE      7
    5   11   SS    -12
    5   11   SE     -5
    5   11   ES      5
    5   11   EE     -4
    6    7   SS      7
    6    7   SE      8
    6    7   ES      5
    6    7   EE     -6
    6    8   SS    -11
    6    8   SE     -7
    6    8   ES     -8
    6    8   EE    -11
    7   11   SS      8
    7   11   SE     -1
    7   11   ES    -11
    7   11   EE     -8
    8    9   SS    -11
    8    9   SE      9
    8    9   ES      6
    8    9   EE      7
    8   10   SS     -3
    8   10   SE     -2
    8   10   ES    -10
    8   10   EE    -11
    8   11   SS     -9
    8   11   SE      1
    8   11   ES     -7
    8   11   EE     -7
************************************************************************
